num_offers = 35;
num_halls = 10;
start=[37,59,78,55,31,3,24,55,32,37,12,16,41,7,38,43,40,16,8,4,21,16,35,3,22,6,7,36,28,41,8,32,21,3,62];
end=[99,63,85,85,96,84,37,70,44,59,15,30,47,10,64,96,93,49,50,72,69,77,41,83,89,88,44,65,70,91,82,37,75,79,90];
price=[4259,373,490,1092,3556,4442,705,600,1056,1599,157,1400,296,355,326,3669,1054,2259,1962,6350,4330,3938,693,1735,1924,1349,1686,1203,696,1765,7181,531,3510,6105,1791];
requirement=[494,499,351,438,259,971,508,687,710,648,330,465,851,379,340,834,317,752,830,486,234,774,490,427,698,990,988,378,999,842,597,381,642,786,485];
capacity=[251,595,948,445,999,689,284,537,399,848];
